p cnf 30 80
a 28 14 0
e 1 2 3 4 5 6 7 8 9 10 11 12 13 15 16 17 18 19 20 21 22 23 24 25 26 27 29 30 0
-3 -2 0
-3 -1 0
2 1 3 0
4 1 0
4 3 0
-1 -3 -4 0
-7 5 0
-7 -6 0
-5 6 7 0
7 -3 -8 0
-7 3 -8 0
7 3 8 0
-7 -3 8 0
-10 6 0
-10 -9 0
-6 9 10 0
10 5 -11 0
-10 -5 -11 0
10 -5 11 0
-10 5 11 0
-13 11 0
-13 -12 0
-11 12 13 0
14 -8 0
14 -13 0
8 13 -14 0
4 14 -15 0
-4 -14 -15 0
4 -14 15 0
-4 14 15 0
16 6 -17 0
-16 -6 -17 0
16 -6 17 0
-16 6 17 0
-9 -2 -18 0
9 2 -18 0
-9 2 18 0
9 -2 18 0
19 -18 0
19 -12 0
18 12 -19 0
-20 -9 0
-20 -16 0
9 16 20 0
-21 19 0
-21 20 0
-19 -20 21 0
22 3 0
22 12 0
-3 -12 -22 0
-23 21 0
-23 -22 0
-21 22 23 0
24 -17 0
24 23 0
17 -23 -24 0
-26 -18 0
-26 25 0
18 -25 26 0
-9 27 0
9 27 0
-28 26 0
-28 -27 0
-26 27 28 0
-24 -28 -29 0
24 28 -29 0
-24 28 29 0
24 -28 29 0
-15 -29 -30 0
15 29 -30 0
-15 29 30 0
15 -29 30 0
-24 27 21 -26 9 0
16 18 22 0
3 -12 -20 27 0
21 18 -30 -23 24 -25 0
-5 6 8 0
8 -22 7 6 -12 -16 -11 0
14 -19 -27 6 -11 -9 24 -23 0
30 0
